NAME: tsp20_19
COMMENT: 20-tsp problem (Padberg/Rinaldi)
TYPE: TSP
DIMENSION: 20
EDGE_WEIGHT_TYPE : EUC_2D
NODE_COORD_SECTION
1.00 34.06 11.20
2.00 4.46 13.13
3.00 13.51 11.76
4.00 27.10 33.86
5.00 29.01 28.88
6.00 4.79 9.52
7.00 20.96 39.69
8.00 0.09 4.90
9.00 36.43 23.84
10.00 34.95 25.97
11.00 13.42 15.29
12.00 12.11 34.91
13.00 27.32 15.60
14.00 7.49 21.17
15.00 1.69 11.97
16.00 4.04 35.68
17.00 32.31 32.88
18.00 30.47 23.54
19.00 23.51 16.24
20.00 7.33 8.94
